h 1 2 3 4 5 6 7 8 9 10 11 12 13 14 15 16 17 18 19 20 21 22 23 24 25 26 27 28 29 30 31 32 0
h 1 2 3 4 5 6 7 8 9 10 11 12 13 14 15 16 17 18 19 20 21 22 23 24 25 26 27 28 29 30 31 32 0
h 1 4 5 8 9 12 13 16 17 20 21 24 25 28 29 32 0
h 1 2 3 4 5 6 7 8 9 10 11 12 13 14 15 16 17 18 19 20 21 22 23 24 25 26 27 28 29 30 31 32 0
h 1 3 6 8 9 11 14 16 17 19 22 24 25 27 30 32 0
h 1 2 7 8 9 10 15 16 17 18 23 24 25 26 31 32 0
h 1 2 3 4 5 6 7 8 9 10 11 12 13 14 15 16 17 18 19 20 21 22 23 24 25 26 27 28 29 30 31 32 0
h 1 2 3 4 5 6 7 8 9 10 11 12 13 14 15 16 17 18 19 20 21 22 23 24 25 26 27 28 29 30 31 32 0
h 1 3 5 7 10 12 14 16 17 19 21 23 26 28 30 32 0
h 1 2 5 6 11 12 15 16 17 18 21 22 27 28 31 32 0
h 1 2 3 4 5 6 7 8 9 10 11 12 13 14 15 16 17 18 19 20 21 22 23 24 25 26 27 28 29 30 31 32 0
h 1 2 3 4 13 14 15 16 17 18 19 20 29 30 31 32 0
h 1 2 3 4 5 6 7 8 9 10 11 12 13 14 15 16 17 18 19 20 21 22 23 24 25 26 27 28 29 30 31 32 0
h 1 2 3 4 5 6 7 8 9 10 11 12 13 14 15 16 17 18 19 20 21 22 23 24 25 26 27 28 29 30 31 32 0
h 1 2 3 5 8 9 12 14 15 16 17 18 19 21 24 25 28 30 31 32 0
h 1 2 3 4 5 6 7 8 9 10 11 12 13 14 15 16 17 18 19 20 21 22 23 24 25 26 27 28 29 30 31 32 0
h 1 3 5 7 9 11 13 15 18 20 22 24 26 28 30 32 0
h 1 2 5 6 9 10 13 14 19 20 23 24 27 28 31 32 0
h 1 2 3 4 5 6 7 8 9 10 11 12 13 14 15 16 17 18 19 20 21 22 23 24 25 26 27 28 29 30 31 32 0
h 1 2 3 4 9 10 11 12 21 22 23 24 29 30 31 32 0
h 1 2 3 4 5 6 7 8 9 10 11 12 13 14 15 16 17 18 19 20 21 22 23 24 25 26 27 28 29 30 31 32 0
h 1 2 3 4 5 6 7 8 9 10 11 12 13 14 15 16 17 18 19 20 21 22 23 24 25 26 27 28 29 30 31 32 0
h 1 2 3 5 8 9 10 11 13 16 17 20 22 23 24 25 28 30 31 32 0
h 1 2 3 4 5 6 7 8 25 26 27 28 29 30 31 32 0
h 1 2 3 4 5 6 7 8 9 10 11 12 13 14 15 16 17 18 19 20 21 22 23 24 25 26 27 28 29 30 31 32 0
h 1 2 3 4 5 6 7 8 9 10 11 12 13 14 15 16 17 18 19 20 21 22 23 24 25 26 27 28 29 30 31 32 0
h 1 2 3 5 6 7 9 12 13 16 17 20 21 24 26 27 28 30 31 32 0
h 1 2 3 4 5 6 7 8 9 10 11 12 13 14 15 16 17 18 19 20 21 22 23 24 25 26 27 28 29 30 31 32 0
h 1 2 3 4 5 7 9 11 14 16 17 19 22 24 26 28 29 30 31 32 0
h 1 2 3 4 5 6 9 10 15 16 17 18 23 24 27 28 29 30 31 32 0
h 1 2 3 4 5 6 7 8 9 10 11 12 13 14 15 16 17 18 19 20 21 22 23 24 25 26 27 28 29 30 31 32 0
h 2 3 6 7 10 11 14 15 18 19 22 23 26 27 30 31 0
h 1 2 3 4 5 6 7 8 9 10 11 12 13 14 15 16 17 18 19 20 21 22 23 24 25 26 27 28 29 30 31 32 0
h 2 4 5 7 10 12 13 15 18 20 21 23 26 28 29 31 0
h 1 2 3 4 5 6 7 8 9 10 11 12 13 14 15 16 17 18 19 20 21 22 23 24 25 26 27 28 29 30 31 32 0
h 1 2 3 4 5 6 7 8 9 10 11 12 13 14 15 16 17 18 19 20 21 22 23 24 25 26 27 28 29 30 31 32 0
h 1 2 7 8 9 10 15 16 17 18 23 24 25 26 31 32 0
h 2 4 6 8 9 11 13 15 18 20 22 24 25 27 29 31 0
h 1 2 3 4 5 6 7 8 9 10 11 12 13 14 15 16 17 18 19 20 21 22 23 24 25 26 27 28 29 30 31 32 0
h 1 2 3 4 5 6 7 8 9 10 11 12 13 14 15 16 17 18 19 20 21 22 23 24 25 26 27 28 29 30 31 32 0
h 1 2 5 6 11 12 15 16 17 18 21 22 27 28 31 32 0
h 1 2 3 4 5 6 7 8 9 10 11 12 13 14 15 16 17 18 19 20 21 22 23 24 25 26 27 28 29 30 31 32 0
h 1 2 3 4 13 14 15 16 17 18 19 20 29 30 31 32 0
h 1 2 4 6 7 10 11 13 15 16 17 18 20 22 23 26 27 29 31 32 0
h 1 2 3 4 5 6 7 8 9 10 11 12 13 14 15 16 17 18 19 20 21 22 23 24 25 26 27 28 29 30 31 32 0
h 2 4 6 8 10 12 14 16 17 19 21 23 25 27 29 31 0
h 1 2 3 4 5 6 7 8 9 10 11 12 13 14 15 16 17 18 19 20 21 22 23 24 25 26 27 28 29 30 31 32 0
h 1 2 3 4 5 6 7 8 9 10 11 12 13 14 15 16 17 18 19 20 21 22 23 24 25 26 27 28 29 30 31 32 0
h 1 2 5 6 9 10 13 14 19 20 23 24 27 28 31 32 0
h 1 2 3 4 5 6 7 8 9 10 11 12 13 14 15 16 17 18 19 20 21 22 23 24 25 26 27 28 29 30 31 32 0
h 1 2 3 4 9 10 11 12 21 22 23 24 29 30 31 32 0
h 1 2 4 6 7 9 10 12 14 15 18 19 21 23 24 26 27 29 31 32 0
h 1 2 3 4 5 6 7 8 9 10 11 12 13 14 15 16 17 18 19 20 21 22 23 24 25 26 27 28 29 30 31 32 0
h 1 2 3 4 5 6 7 8 9 10 11 12 13 14 15 16 17 18 19 20 21 22 23 24 25 26 27 28 29 30 31 32 0
h 1 2 3 4 5 6 7 8 25 26 27 28 29 30 31 32 0
h 1 2 4 5 6 8 10 11 14 15 18 19 22 23 25 27 28 29 31 32 0
h 1 2 3 4 5 6 7 8 9 10 11 12 13 14 15 16 17 18 19 20 21 22 23 24 25 26 27 28 29 30 31 32 0
h 1 2 3 4 6 8 10 12 13 15 18 20 21 23 25 27 29 30 31 32 0
h 1 2 3 4 5 6 7 8 9 10 11 12 13 14 15 16 17 18 19 20 21 22 23 24 25 26 27 28 29 30 31 32 0
h 1 2 3 4 5 6 7 8 9 10 11 12 13 14 15 16 17 18 19 20 21 22 23 24 25 26 27 28 29 30 31 32 0
h 1 2 3 4 5 6 9 10 15 16 17 18 23 24 27 28 29 30 31 32 0
h 1 2 3 4 5 6 7 8 9 10 11 12 13 14 15 16 17 18 19 20 21 22 23 24 25 26 27 28 29 30 31 32 0
h 3 4 5 6 11 12 13 14 19 20 21 22 27 28 29 30 0
h 1 2 3 4 5 6 7 8 9 10 11 12 13 14 15 16 17 18 19 20 21 22 23 24 25 26 27 28 29 30 31 32 0
h 1 2 3 4 5 6 7 8 9 10 11 12 13 14 15 16 17 18 19 20 21 22 23 24 25 26 27 28 29 30 31 32 0
h 1 3 6 8 9 11 14 16 17 19 22 24 25 27 30 32 0
h 3 4 7 8 9 10 13 14 19 20 23 24 25 26 29 30 0
h 1 2 3 4 5 6 7 8 9 10 11 12 13 14 15 16 17 18 19 20 21 22 23 24 25 26 27 28 29 30 31 32 0
h 1 2 3 4 5 6 7 8 9 10 11 12 13 14 15 16 17 18 19 20 21 22 23 24 25 26 27 28 29 30 31 32 0
h 1 3 5 7 10 12 14 16 17 19 21 23 26 28 30 32 0
h 1 2 3 4 5 6 7 8 9 10 11 12 13 14 15 16 17 18 19 20 21 22 23 24 25 26 27 28 29 30 31 32 0
h 1 3 4 6 7 10 11 13 14 16 17 19 20 22 23 26 27 29 30 32 0
h 1 2 3 4 13 14 15 16 17 18 19 20 29 30 31 32 0
h 1 2 3 4 5 6 7 8 9 10 11 12 13 14 15 16 17 18 19 20 21 22 23 24 25 26 27 28 29 30 31 32 0
h 3 4 7 8 11 12 15 16 17 18 21 22 25 26 29 30 0
h 1 2 3 4 5 6 7 8 9 10 11 12 13 14 15 16 17 18 19 20 21 22 23 24 25 26 27 28 29 30 31 32 0
h 1 2 3 4 5 6 7 8 9 10 11 12 13 14 15 16 17 18 19 20 21 22 23 24 25 26 27 28 29 30 31 32 0
h 1 3 5 7 9 11 13 15 18 20 22 24 26 28 30 32 0
h 1 2 3 4 5 6 7 8 9 10 11 12 13 14 15 16 17 18 19 20 21 22 23 24 25 26 27 28 29 30 31 32 0
h 1 3 4 6 7 9 11 12 14 15 18 19 21 22 24 26 27 29 30 32 0
h 1 2 3 4 9 10 11 12 21 22 23 24 29 30 31 32 0
h 1 2 3 4 5 6 7 8 9 10 11 12 13 14 15 16 17 18 19 20 21 22 23 24 25 26 27 28 29 30 31 32 0
h 1 2 3 4 5 6 7 8 9 10 11 12 13 14 15 16 17 18 19 20 21 22 23 24 25 26 27 28 29 30 31 32 0
h 1 3 4 5 7 8 10 11 14 15 18 19 22 23 25 26 28 29 30 32 0
h 1 2 3 4 5 6 7 8 25 26 27 28 29 30 31 32 0
h 1 2 3 4 5 6 7 8 9 10 11 12 13 14 15 16 17 18 19 20 21 22 23 24 25 26 27 28 29 30 31 32 0
h 1 2 3 4 7 8 11 12 13 14 19 20 21 22 25 26 29 30 31 32 0
h 1 2 3 4 5 6 7 8 9 10 11 12 13 14 15 16 17 18 19 20 21 22 23 24 25 26 27 28 29 30 31 32 0
h 1 2 3 4 5 6 7 8 9 10 11 12 13 14 15 16 17 18 19 20 21 22 23 24 25 26 27 28 29 30 31 32 0
h 1 2 3 4 5 7 9 11 14 16 17 19 22 24 26 28 29 30 31 32 0
h 1 2 3 4 5 6 7 8 9 10 11 12 13 14 15 16 17 18 19 20 21 22 23 24 25 26 27 28 29 30 31 32 0
h 3 4 5 6 11 12 13 14 19 20 21 22 27 28 29 30 0
h 2 4 5 7 10 12 13 15 18 20 21 23 26 28 29 31 0
h 1 2 3 4 5 6 7 8 9 10 11 12 13 14 15 16 17 18 19 20 21 22 23 24 25 26 27 28 29 30 31 32 0
h 1 2 3 4 5 6 7 8 9 10 11 12 13 14 15 16 17 18 19 20 21 22 23 24 25 26 27 28 29 30 31 32 0
h 3 4 7 8 9 10 13 14 19 20 23 24 25 26 29 30 0
h 2 4 6 8 9 11 13 15 18 20 22 24 25 27 29 31 0
h 1 2 3 4 5 6 7 8 9 10 11 12 13 14 15 16 17 18 19 20 21 22 23 24 25 26 27 28 29 30 31 32 0
h 2 3 4 5 8 9 12 13 14 15 18 19 20 21 24 25 28 29 30 31 0
h 1 2 3 4 5 6 7 8 9 10 11 12 13 14 15 16 17 18 19 20 21 22 23 24 25 26 27 28 29 30 31 32 0
h 1 2 3 4 5 6 7 8 9 10 11 12 13 14 15 16 17 18 19 20 21 22 23 24 25 26 27 28 29 30 31 32 0
h 1 2 3 4 13 14 15 16 17 18 19 20 29 30 31 32 0
h 1 2 3 4 5 6 7 8 9 10 11 12 13 14 15 16 17 18 19 20 21 22 23 24 25 26 27 28 29 30 31 32 0
h 3 4 7 8 11 12 15 16 17 18 21 22 25 26 29 30 0
h 2 4 6 8 10 12 14 16 17 19 21 23 25 27 29 31 0
h 1 2 3 4 5 6 7 8 9 10 11 12 13 14 15 16 17 18 19 20 21 22 23 24 25 26 27 28 29 30 31 32 0
h 2 3 4 5 8 10 11 12 13 16 17 20 21 22 23 25 28 29 30 31 0
h 1 2 3 4 5 6 7 8 9 10 11 12 13 14 15 16 17 18 19 20 21 22 23 24 25 26 27 28 29 30 31 32 0
h 1 2 3 4 5 6 7 8 9 10 11 12 13 14 15 16 17 18 19 20 21 22 23 24 25 26 27 28 29 30 31 32 0
h 1 2 3 4 9 10 11 12 21 22 23 24 29 30 31 32 0
h 2 3 4 6 7 8 9 12 13 16 17 20 21 24 25 26 27 29 30 31 0
h 1 2 3 4 5 6 7 8 9 10 11 12 13 14 15 16 17 18 19 20 21 22 23 24 25 26 27 28 29 30 31 32 0
h 1 2 3 4 5 6 7 8 9 10 11 12 13 14 15 16 17 18 19 20 21 22 23 24 25 26 27 28 29 30 31 32 0
h 1 2 3 4 5 6 7 8 25 26 27 28 29 30 31 32 0
h 1 2 3 4 5 6 7 8 9 10 11 12 13 14 15 16 17 18 19 20 21 22 23 24 25 26 27 28 29 30 31 32 0
h 1 2 3 4 7 8 11 12 13 14 19 20 21 22 25 26 29 30 31 32 0
h 1 2 3 4 6 8 10 12 13 15 18 20 21 23 25 27 29 30 31 32 0
h 1 2 3 4 5 6 7 8 9 10 11 12 13 14 15 16 17 18 19 20 21 22 23 24 25 26 27 28 29 30 31 32 0
h 1 2 3 4 5 6 7 8 9 10 11 12 13 14 15 16 17 18 19 20 21 22 23 24 25 26 27 28 29 30 31 32 0
h 1 2 3 4 5 6 7 8 9 10 11 12 13 14 15 16 17 18 19 20 21 22 23 24 25 26 27 28 29 30 31 32 0
h 1 4 5 8 9 12 13 16 17 20 21 24 25 28 29 32 0
h 5 6 7 8 9 10 11 12 21 22 23 24 25 26 27 28 0
h 1 2 3 4 5 6 7 8 9 10 11 12 13 14 15 16 17 18 19 20 21 22 23 24 25 26 27 28 29 30 31 32 0
h 1 2 3 4 5 6 7 8 9 10 11 12 13 14 15 16 17 18 19 20 21 22 23 24 25 26 27 28 29 30 31 32 0
h 1 4 5 6 7 10 11 12 13 16 17 20 21 22 23 26 27 28 29 32 0
h 1 2 3 4 5 6 7 8 9 10 11 12 13 14 15 16 17 18 19 20 21 22 23 24 25 26 27 28 29 30 31 32 0
h 1 3 5 7 10 12 14 16 17 19 21 23 26 28 30 32 0
h 1 2 5 6 11 12 15 16 17 18 21 22 27 28 31 32 0
h 1 2 3 4 5 6 7 8 9 10 11 12 13 14 15 16 17 18 19 20 21 22 23 24 25 26 27 28 29 30 31 32 0
h 5 6 7 8 13 14 15 16 17 18 19 20 25 26 27 28 0
h 1 2 3 4 5 6 7 8 9 10 11 12 13 14 15 16 17 18 19 20 21 22 23 24 25 26 27 28 29 30 31 32 0
h 1 2 3 4 5 6 7 8 9 10 11 12 13 14 15 16 17 18 19 20 21 22 23 24 25 26 27 28 29 30 31 32 0
h 1 4 5 6 7 9 12 13 14 15 18 19 20 21 24 26 27 28 29 32 0
h 1 2 3 4 5 6 7 8 9 10 11 12 13 14 15 16 17 18 19 20 21 22 23 24 25 26 27 28 29 30 31 32 0
h 1 3 5 7 9 11 13 15 18 20 22 24 26 28 30 32 0
h 1 2 5 6 9 10 13 14 19 20 23 24 27 28 31 32 0
h 1 2 3 4 5 6 7 8 9 10 11 12 13 14 15 16 17 18 19 20 21 22 23 24 25 26 27 28 29 30 31 32 0
h 1 2 3 4 5 6 7 8 9 10 11 12 13 14 15 16 17 18 19 20 21 22 23 24 25 26 27 28 29 30 31 32 0
h 1 3 5 6 7 8 10 12 13 15 18 20 21 23 25 26 27 28 30 32 0
h 1 2 5 6 7 8 11 12 13 14 19 20 21 22 25 26 27 28 31 32 0
h 1 2 3 4 5 6 7 8 9 10 11 12 13 14 15 16 17 18 19 20 21 22 23 24 25 26 27 28 29 30 31 32 0
h 1 2 3 4 5 6 7 8 25 26 27 28 29 30 31 32 0
h 1 2 3 4 5 6 7 8 9 10 11 12 13 14 15 16 17 18 19 20 21 22 23 24 25 26 27 28 29 30 31 32 0
h 1 2 3 4 5 6 7 8 9 10 11 12 13 14 15 16 17 18 19 20 21 22 23 24 25 26 27 28 29 30 31 32 0
h 1 2 3 5 6 7 9 12 13 16 17 20 21 24 26 27 28 30 31 32 0
h 2 3 6 7 10 11 14 15 18 19 22 23 26 27 30 31 0
h 1 2 3 4 5 6 7 8 9 10 11 12 13 14 15 16 17 18 19 20 21 22 23 24 25 26 27 28 29 30 31 32 0
h 1 2 3 4 5 6 7 8 9 10 11 12 13 14 15 16 17 18 19 20 21 22 23 24 25 26 27 28 29 30 31 32 0
h 5 6 7 8 9 10 11 12 21 22 23 24 25 26 27 28 0
h 2 3 5 6 8 9 11 12 14 15 18 19 21 22 24 25 27 28 30 31 0
h 1 2 3 4 5 6 7 8 9 10 11 12 13 14 15 16 17 18 19 20 21 22 23 24 25 26 27 28 29 30 31 32 0
h 2 4 6 8 9 11 13 15 18 20 22 24 25 27 29 31 0
h 1 2 3 4 5 6 7 8 9 10 11 12 13 14 15 16 17 18 19 20 21 22 23 24 25 26 27 28 29 30 31 32 0
h 1 2 3 4 5 6 7 8 9 10 11 12 13 14 15 16 17 18 19 20 21 22 23 24 25 26 27 28 29 30 31 32 0
h 1 2 5 6 11 12 15 16 17 18 21 22 27 28 31 32 0
h 1 2 3 4 5 6 7 8 9 10 11 12 13 14 15 16 17 18 19 20 21 22 23 24 25 26 27 28 29 30 31 32 0
h 5 6 7 8 13 14 15 16 17 18 19 20 25 26 27 28 0
h 2 3 5 6 8 10 11 13 14 16 17 19 20 22 23 25 27 28 30 31 0
h 1 2 3 4 5 6 7 8 9 10 11 12 13 14 15 16 17 18 19 20 21 22 23 24 25 26 27 28 29 30 31 32 0
h 2 4 6 8 10 12 14 16 17 19 21 23 25 27 29 31 0
h 1 2 3 4 5 6 7 8 9 10 11 12 13 14 15 16 17 18 19 20 21 22 23 24 25 26 27 28 29 30 31 32 0
h 1 2 3 4 5 6 7 8 9 10 11 12 13 14 15 16 17 18 19 20 21 22 23 24 25 26 27 28 29 30 31 32 0
h 1 2 5 6 9 10 13 14 19 20 23 24 27 28 31 32 0
h 2 4 5 6 7 8 9 11 14 16 17 19 22 24 25 26 27 28 29 31 0
h 1 2 3 4 5 6 7 8 9 10 11 12 13 14 15 16 17 18 19 20 21 22 23 24 25 26 27 28 29 30 31 32 0
h 1 2 3 4 5 6 7 8 9 10 11 12 13 14 15 16 17 18 19 20 21 22 23 24 25 26 27 28 29 30 31 32 0
h 1 2 5 6 7 8 11 12 13 14 19 20 21 22 25 26 27 28 31 32 0
h 1 2 3 4 5 6 7 8 9 10 11 12 13 14 15 16 17 18 19 20 21 22 23 24 25 26 27 28 29 30 31 32 0
h 1 2 3 4 5 6 7 8 25 26 27 28 29 30 31 32 0
h 1 2 4 5 6 8 10 11 14 15 18 19 22 23 25 27 28 29 31 32 0
h 1 2 3 4 5 6 7 8 9 10 11 12 13 14 15 16 17 18 19 20 21 22 23 24 25 26 27 28 29 30 31 32 0
h 1 2 3 4 5 6 7 8 9 10 11 12 13 14 15 16 17 18 19 20 21 22 23 24 25 26 27 28 29 30 31 32 0
h 1 2 3 4 5 6 7 8 9 10 11 12 13 14 15 16 17 18 19 20 21 22 23 24 25 26 27 28 29 30 31 32 0
h 2 3 5 7 8 9 10 12 14 15 18 19 21 23 24 25 26 28 30 31 0
h 5 6 7 8 9 10 11 12 21 22 23 24 25 26 27 28 0
h 1 2 3 4 5 6 7 8 9 10 11 12 13 14 15 16 17 18 19 20 21 22 23 24 25 26 27 28 29 30 31 32 0
h 3 4 7 8 9 10 13 14 19 20 23 24 25 26 29 30 0
h 1 2 3 4 5 6 7 8 9 10 11 12 13 14 15 16 17 18 19 20 21 22 23 24 25 26 27 28 29 30 31 32 0
h 1 2 3 4 5 6 7 8 9 10 11 12 13 14 15 16 17 18 19 20 21 22 23 24 25 26 27 28 29 30 31 32 0
h 1 3 5 7 10 12 14 16 17 19 21 23 26 28 30 32 0
h 1 2 3 4 5 6 7 8 9 10 11 12 13 14 15 16 17 18 19 20 21 22 23 24 25 26 27 28 29 30 31 32 0
h 2 3 5 7 8 10 11 13 15 16 17 18 20 22 23 25 26 28 30 31 0
h 5 6 7 8 13 14 15 16 17 18 19 20 25 26 27 28 0
h 1 2 3 4 5 6 7 8 9 10 11 12 13 14 15 16 17 18 19 20 21 22 23 24 25 26 27 28 29 30 31 32 0
h 3 4 7 8 11 12 15 16 17 18 21 22 25 26 29 30 0
h 1 2 3 4 5 6 7 8 9 10 11 12 13 14 15 16 17 18 19 20 21 22 23 24 25 26 27 28 29 30 31 32 0
h 1 2 3 4 5 6 7 8 9 10 11 12 13 14 15 16 17 18 19 20 21 22 23 24 25 26 27 28 29 30 31 32 0
h 1 3 5 7 9 11 13 15 18 20 22 24 26 28 30 32 0
h 3 4 5 6 7 8 9 10 15 16 17 18 23 24 25 26 27 28 29 30 0
h 1 2 3 4 5 6 7 8 9 10 11 12 13 14 15 16 17 18 19 20 21 22 23 24 25 26 27 28 29 30 31 32 0
h 1 2 3 4 5 6 7 8 9 10 11 12 13 14 15 16 17 18 19 20 21 22 23 24 25 26 27 28 29 30 31 32 0
h 1 3 5 6 7 8 10 12 13 15 18 20 21 23 25 26 27 28 30 32 0
h 1 2 3 4 5 6 7 8 9 10 11 12 13 14 15 16 17 18 19 20 21 22 23 24 25 26 27 28 29 30 31 32 0
h 1 3 4 5 7 8 10 11 14 15 18 19 22 23 25 26 28 29 30 32 0
h 1 2 3 4 5 6 7 8 25 26 27 28 29 30 31 32 0
h 1 2 3 4 5 6 7 8 9 10 11 12 13 14 15 16 17 18 19 20 21 22 23 24 25 26 27 28 29 30 31 32 0
h 1 4 6 7 8 9 10 11 13 16 17 20 22 23 24 25 26 27 29 32 0
h 1 2 3 4 5 6 7 8 9 10 11 12 13 14 15 16 17 18 19 20 21 22 23 24 25 26 27 28 29 30 31 32 0
h 1 2 3 4 5 6 7 8 9 10 11 12 13 14 15 16 17 18 19 20 21 22 23 24 25 26 27 28 29 30 31 32 0
h 5 6 7 8 9 10 11 12 21 22 23 24 25 26 27 28 0
h 1 2 3 4 5 6 7 8 9 10 11 12 13 14 15 16 17 18 19 20 21 22 23 24 25 26 27 28 29 30 31 32 0
h 3 4 7 8 9 10 13 14 19 20 23 24 25 26 29 30 0
h 2 4 6 8 9 11 13 15 18 20 22 24 25 27 29 31 0
h 1 2 3 4 5 6 7 8 9 10 11 12 13 14 15 16 17 18 19 20 21 22 23 24 25 26 27 28 29 30 31 32 0
h 1 4 6 7 8 9 12 14 15 16 17 18 19 21 24 25 26 27 29 32 0
h 1 2 3 4 5 6 7 8 9 10 11 12 13 14 15 16 17 18 19 20 21 22 23 24 25 26 27 28 29 30 31 32 0
h 1 2 3 4 5 6 7 8 9 10 11 12 13 14 15 16 17 18 19 20 21 22 23 24 25 26 27 28 29 30 31 32 0
h 5 6 7 8 13 14 15 16 17 18 19 20 25 26 27 28 0
h 1 2 3 4 5 6 7 8 9 10 11 12 13 14 15 16 17 18 19 20 21 22 23 24 25 26 27 28 29 30 31 32 0
h 3 4 7 8 11 12 15 16 17 18 21 22 25 26 29 30 0
h 2 4 6 8 10 12 14 16 17 19 21 23 25 27 29 31 0
h 1 2 3 4 5 6 7 8 9 10 11 12 13 14 15 16 17 18 19 20 21 22 23 24 25 26 27 28 29 30 31 32 0
h 1 2 3 4 5 6 7 8 9 10 11 12 13 14 15 16 17 18 19 20 21 22 23 24 25 26 27 28 29 30 31 32 0
h 3 4 5 6 7 8 9 10 15 16 17 18 23 24 25 26 27 28 29 30 0
h 2 4 5 6 7 8 9 11 14 16 17 19 22 24 25 26 27 28 29 31 0
h 1 2 3 4 5 6 7 8 9 10 11 12 13 14 15 16 17 18 19 20 21 22 23 24 25 26 27 28 29 30 31 32 0
h 2 3 4 6 7 8 9 12 13 16 17 20 21 24 25 26 27 29 30 31 0
h 1 2 3 4 5 6 7 8 9 10 11 12 13 14 15 16 17 18 19 20 21 22 23 24 25 26 27 28 29 30 31 32 0
h 1 2 3 4 5 6 7 8 9 10 11 12 13 14 15 16 17 18 19 20 21 22 23 24 25 26 27 28 29 30 31 32 0
h 1 2 3 4 5 6 7 8 25 26 27 28 29 30 31 32 0
h 1 2 3 4 5 6 7 8 9 10 11 12 13 14 15 16 17 18 19 20 21 22 23 24 25 26 27 28 29 30 31 32 0
h 1 2 3 4 5 6 7 8 9 10 11 12 13 14 15 16 17 18 19 20 21 22 23 24 25 26 27 28 29 30 31 32 0
h 1 4 5 8 9 12 13 16 17 20 21 24 25 28 29 32 0
h 1 2 3 4 5 6 7 8 9 10 11 12 13 14 15 16 17 18 19 20 21 22 23 24 25 26 27 28 29 30 31 32 0
h 1 3 6 8 9 11 14 16 17 19 22 24 25 27 30 32 0
h 1 2 7 8 9 10 15 16 17 18 23 24 25 26 31 32 0
h 1 2 3 4 5 6 7 8 9 10 11 12 13 14 15 16 17 18 19 20 21 22 23 24 25 26 27 28 29 30 31 32 0
h 9 10 11 12 13 14 15 16 17 18 19 20 21 22 23 24 0
h 1 2 3 4 5 6 7 8 9 10 11 12 13 14 15 16 17 18 19 20 21 22 23 24 25 26 27 28 29 30 31 32 0
h 1 2 3 4 5 6 7 8 9 10 11 12 13 14 15 16 17 18 19 20 21 22 23 24 25 26 27 28 29 30 31 32 0
h 1 4 5 8 9 10 11 13 14 15 18 19 20 22 23 24 25 28 29 32 0
h 1 2 3 4 5 6 7 8 9 10 11 12 13 14 15 16 17 18 19 20 21 22 23 24 25 26 27 28 29 30 31 32 0
h 1 3 6 8 9 10 11 12 13 15 18 20 21 22 23 24 25 27 30 32 0
h 1 2 7 8 9 10 11 12 13 14 19 20 21 22 23 24 25 26 31 32 0
h 1 2 3 4 5 6 7 8 9 10 11 12 13 14 15 16 17 18 19 20 21 22 23 24 25 26 27 28 29 30 31 32 0
h 1 2 3 4 5 6 7 8 9 10 11 12 13 14 15 16 17 18 19 20 21 22 23 24 25 26 27 28 29 30 31 32 0
h 1 3 5 7 9 11 13 15 18 20 22 24 26 28 30 32 0
h 1 2 5 6 9 10 13 14 19 20 23 24 27 28 31 32 0
h 1 2 3 4 5 6 7 8 9 10 11 12 13 14 15 16 17 18 19 20 21 22 23 24 25 26 27 28 29 30 31 32 0
h 1 2 3 4 9 10 11 12 21 22 23 24 29 30 31 32 0
h 1 2 3 4 5 6 7 8 9 10 11 12 13 14 15 16 17 18 19 20 21 22 23 24 25 26 27 28 29 30 31 32 0
h 1 2 3 4 5 6 7 8 9 10 11 12 13 14 15 16 17 18 19 20 21 22 23 24 25 26 27 28 29 30 31 32 0
h 1 2 3 5 8 9 10 11 13 16 17 20 22 23 24 25 28 30 31 32 0
h 2 3 6 7 10 11 14 15 18 19 22 23 26 27 30 31 0
h 1 2 3 4 5 6 7 8 9 10 11 12 13 14 15 16 17 18 19 20 21 22 23 24 25 26 27 28 29 30 31 32 0
h 2 4 5 7 10 12 13 15 18 20 21 23 26 28 29 31 0
h 1 2 3 4 5 6 7 8 9 10 11 12 13 14 15 16 17 18 19 20 21 22 23 24 25 26 27 28 29 30 31 32 0
h 1 2 3 4 5 6 7 8 9 10 11 12 13 14 15 16 17 18 19 20 21 22 23 24 25 26 27 28 29 30 31 32 0
h 1 2 7 8 9 10 15 16 17 18 23 24 25 26 31 32 0
h 1 2 3 4 5 6 7 8 9 10 11 12 13 14 15 16 17 18 19 20 21 22 23 24 25 26 27 28 29 30 31 32 0
h 9 10 11 12 13 14 15 16 17 18 19 20 21 22 23 24 0
h 2 3 6 7 9 10 12 13 14 16 17 19 20 21 23 24 26 27 30 31 0
h 1 2 3 4 5 6 7 8 9 10 11 12 13 14 15 16 17 18 19 20 21 22 23 24 25 26 27 28 29 30 31 32 0
h 2 4 5 7 9 10 11 12 14 16 17 19 21 22 23 24 26 28 29 31 0
h 1 2 3 4 5 6 7 8 9 10 11 12 13 14 15 16 17 18 19 20 21 22 23 24 25 26 27 28 29 30 31 32 0
h 1 2 3 4 5 6 7 8 9 10 11 12 13 14 15 16 17 18 19 20 21 22 23 24 25 26 27 28 29 30 31 32 0
h 1 2 7 8 9 10 11 12 13 14 19 20 21 22 23 24 25 26 31 32 0
h 2 4 6 8 10 12 14 16 17 19 21 23 25 27 29 31 0
h 1 2 3 4 5 6 7 8 9 10 11 12 13 14 15 16 17 18 19 20 21 22 23 24 25 26 27 28 29 30 31 32 0
h 1 2 3 4 5 6 7 8 9 10 11 12 13 14 15 16 17 18 19 20 21 22 23 24 25 26 27 28 29 30 31 32 0
h 1 2 5 6 9 10 13 14 19 20 23 24 27 28 31 32 0
h 1 2 3 4 5 6 7 8 9 10 11 12 13 14 15 16 17 18 19 20 21 22 23 24 25 26 27 28 29 30 31 32 0
h 1 2 3 4 9 10 11 12 21 22 23 24 29 30 31 32 0
h 1 2 4 6 7 9 10 12 14 15 18 19 21 23 24 26 27 29 31 32 0
h 1 2 3 4 5 6 7 8 9 10 11 12 13 14 15 16 17 18 19 20 21 22 23 24 25 26 27 28 29 30 31 32 0
h 1 2 3 4 5 6 7 8 9 10 11 12 13 14 15 16 17 18 19 20 21 22 23 24 25 26 27 28 29 30 31 32 0
h 3 4 5 6 11 12 13 14 19 20 21 22 27 28 29 30 0
h 1 2 3 4 5 6 7 8 9 10 11 12 13 14 15 16 17 18 19 20 21 22 23 24 25 26 27 28 29 30 31 32 0
h 1 2 3 4 5 6 7 8 9 10 11 12 13 14 15 16 17 18 19 20 21 22 23 24 25 26 27 28 29 30 31 32 0
h 1 3 6 8 9 11 14 16 17 19 22 24 25 27 30 32 0
h 1 2 3 4 5 6 7 8 9 10 11 12 13 14 15 16 17 18 19 20 21 22 23 24 25 26 27 28 29 30 31 32 0
h 2 3 6 7 9 11 12 13 15 16 17 18 20 21 22 24 26 27 30 31 0
h 9 10 11 12 13 14 15 16 17 18 19 20 21 22 23 24 0
h 1 2 3 4 5 6 7 8 9 10 11 12 13 14 15 16 17 18 19 20 21 22 23 24 25 26 27 28 29 30 31 32 0
h 3 4 5 6 9 10 11 12 15 16 17 18 21 22 23 24 27 28 29 30 0
h 1 2 3 4 5 6 7 8 9 10 11 12 13 14 15 16 17 18 19 20 21 22 23 24 25 26 27 28 29 30 31 32 0
h 1 2 3 4 5 6 7 8 9 10 11 12 13 14 15 16 17 18 19 20 21 22 23 24 25 26 27 28 29 30 31 32 0
h 1 3 6 8 9 10 11 12 13 15 18 20 21 22 23 24 25 27 30 32 0
h 3 4 7 8 11 12 15 16 17 18 21 22 25 26 29 30 0
h 1 2 3 4 5 6 7 8 9 10 11 12 13 14 15 16 17 18 19 20 21 22 23 24 25 26 27 28 29 30 31 32 0
h 1 2 3 4 5 6 7 8 9 10 11 12 13 14 15 16 17 18 19 20 21 22 23 24 25 26 27 28 29 30 31 32 0
h 1 3 5 7 9 11 13 15 18 20 22 24 26 28 30 32 0
h 1 2 3 4 5 6 7 8 9 10 11 12 13 14 15 16 17 18 19 20 21 22 23 24 25 26 27 28 29 30 31 32 0
h 1 3 4 6 7 9 11 12 14 15 18 19 21 22 24 26 27 29 30 32 0
h 1 2 3 4 9 10 11 12 21 22 23 24 29 30 31 32 0
h 1 2 3 4 5 6 7 8 9 10 11 12 13 14 15 16 17 18 19 20 21 22 23 24 25 26 27 28 29 30 31 32 0
h 1 2 3 4 5 6 7 8 9 10 11 12 13 14 15 16 17 18 19 20 21 22 23 24 25 26 27 28 29 30 31 32 0
h 3 4 5 6 11 12 13 14 19 20 21 22 27 28 29 30 0
h 2 4 5 7 10 12 13 15 18 20 21 23 26 28 29 31 0
h 1 2 3 4 5 6 7 8 9 10 11 12 13 14 15 16 17 18 19 20 21 22 23 24 25 26 27 28 29 30 31 32 0
h 1 4 5 8 10 11 12 14 15 16 17 18 19 21 22 23 25 28 29 32 0
h 1 2 3 4 5 6 7 8 9 10 11 12 13 14 15 16 17 18 19 20 21 22 23 24 25 26 27 28 29 30 31 32 0
h 1 2 3 4 5 6 7 8 9 10 11 12 13 14 15 16 17 18 19 20 21 22 23 24 25 26 27 28 29 30 31 32 0
h 9 10 11 12 13 14 15 16 17 18 19 20 21 22 23 24 0
h 1 2 3 4 5 6 7 8 9 10 11 12 13 14 15 16 17 18 19 20 21 22 23 24 25 26 27 28 29 30 31 32 0
h 3 4 5 6 9 10 11 12 15 16 17 18 21 22 23 24 27 28 29 30 0
h 2 4 5 7 9 10 11 12 14 16 17 19 21 22 23 24 26 28 29 31 0
h 1 2 3 4 5 6 7 8 9 10 11 12 13 14 15 16 17 18 19 20 21 22 23 24 25 26 27 28 29 30 31 32 0
h 1 2 3 4 5 6 7 8 9 10 11 12 13 14 15 16 17 18 19 20 21 22 23 24 25 26 27 28 29 30 31 32 0
h 3 4 7 8 11 12 15 16 17 18 21 22 25 26 29 30 0
h 2 4 6 8 10 12 14 16 17 19 21 23 25 27 29 31 0
h 1 2 3 4 5 6 7 8 9 10 11 12 13 14 15 16 17 18 19 20 21 22 23 24 25 26 27 28 29 30 31 32 0
h 2 3 4 5 8 10 11 12 13 16 17 20 21 22 23 25 28 29 30 31 0
h 1 2 3 4 5 6 7 8 9 10 11 12 13 14 15 16 17 18 19 20 21 22 23 24 25 26 27 28 29 30 31 32 0
h 1 2 3 4 5 6 7 8 9 10 11 12 13 14 15 16 17 18 19 20 21 22 23 24 25 26 27 28 29 30 31 32 0
h 1 2 3 4 9 10 11 12 21 22 23 24 29 30 31 32 0
h 1 2 3 4 5 6 7 8 9 10 11 12 13 14 15 16 17 18 19 20 21 22 23 24 25 26 27 28 29 30 31 32 0
h 1 2 3 4 5 6 7 8 9 10 11 12 13 14 15 16 17 18 19 20 21 22 23 24 25 26 27 28 29 30 31 32 0
h 1 4 5 8 9 12 13 16 17 20 21 24 25 28 29 32 0
h 1 2 3 4 5 6 7 8 9 10 11 12 13 14 15 16 17 18 19 20 21 22 23 24 25 26 27 28 29 30 31 32 0
h 2 4 5 7 9 11 13 14 15 16 17 18 19 20 22 24 26 28 29 31 0
h 3 4 5 6 9 10 13 14 15 16 17 18 19 20 23 24 27 28 29 30 0
h 1 2 3 4 5 6 7 8 9 10 11 12 13 14 15 16 17 18 19 20 21 22 23 24 25 26 27 28 29 30 31 32 0
h 9 10 11 12 13 14 15 16 17 18 19 20 21 22 23 24 0
h 1 2 3 4 5 6 7 8 9 10 11 12 13 14 15 16 17 18 19 20 21 22 23 24 25 26 27 28 29 30 31 32 0
h 1 2 3 4 5 6 7 8 9 10 11 12 13 14 15 16 17 18 19 20 21 22 23 24 25 26 27 28 29 30 31 32 0
h 1 4 5 8 9 10 11 13 14 15 18 19 20 22 23 24 25 28 29 32 0
h 5 6 7 8 13 14 15 16 17 18 19 20 25 26 27 28 0
h 1 2 3 4 5 6 7 8 9 10 11 12 13 14 15 16 17 18 19 20 21 22 23 24 25 26 27 28 29 30 31 32 0
h 1 2 3 4 5 6 7 8 9 10 11 12 13 14 15 16 17 18 19 20 21 22 23 24 25 26 27 28 29 30 31 32 0
h 1 4 5 6 7 9 12 13 14 15 18 19 20 21 24 26 27 28 29 32 0
h 1 2 3 4 5 6 7 8 9 10 11 12 13 14 15 16 17 18 19 20 21 22 23 24 25 26 27 28 29 30 31 32 0
h 1 3 5 7 9 11 13 15 18 20 22 24 26 28 30 32 0
h 1 2 5 6 9 10 13 14 19 20 23 24 27 28 31 32 0
h 1 2 3 4 5 6 7 8 9 10 11 12 13 14 15 16 17 18 19 20 21 22 23 24 25 26 27 28 29 30 31 32 0
h 2 3 6 7 10 11 14 15 18 19 22 23 26 27 30 31 0
h 1 2 3 4 5 6 7 8 9 10 11 12 13 14 15 16 17 18 19 20 21 22 23 24 25 26 27 28 29 30 31 32 0
h 1 3 6 8 10 12 13 14 15 16 17 18 19 20 21 23 25 27 30 32 0
h 1 2 3 4 5 6 7 8 9 10 11 12 13 14 15 16 17 18 19 20 21 22 23 24 25 26 27 28 29 30 31 32 0
h 1 2 3 4 5 6 7 8 9 10 11 12 13 14 15 16 17 18 19 20 21 22 23 24 25 26 27 28 29 30 31 32 0
h 3 4 5 6 9 10 13 14 15 16 17 18 19 20 23 24 27 28 29 30 0
h 1 2 3 4 5 6 7 8 9 10 11 12 13 14 15 16 17 18 19 20 21 22 23 24 25 26 27 28 29 30 31 32 0
h 9 10 11 12 13 14 15 16 17 18 19 20 21 22 23 24 0
h 2 3 6 7 9 10 12 13 14 16 17 19 20 21 23 24 26 27 30 31 0
h 1 2 3 4 5 6 7 8 9 10 11 12 13 14 15 16 17 18 19 20 21 22 23 24 25 26 27 28 29 30 31 32 0
h 1 2 3 4 5 6 7 8 9 10 11 12 13 14 15 16 17 18 19 20 21 22 23 24 25 26 27 28 29 30 31 32 0
h 5 6 7 8 13 14 15 16 17 18 19 20 25 26 27 28 0
h 2 3 5 6 8 10 11 13 14 16 17 19 20 22 23 25 27 28 30 31 0
h 1 2 3 4 5 6 7 8 9 10 11 12 13 14 15 16 17 18 19 20 21 22 23 24 25 26 27 28 29 30 31 32 0
h 2 4 6 8 10 12 14 16 17 19 21 23 25 27 29 31 0
h 1 2 3 4 5 6 7 8 9 10 11 12 13 14 15 16 17 18 19 20 21 22 23 24 25 26 27 28 29 30 31 32 0
h 1 2 3 4 5 6 7 8 9 10 11 12 13 14 15 16 17 18 19 20 21 22 23 24 25 26 27 28 29 30 31 32 0
h 1 2 5 6 9 10 13 14 19 20 23 24 27 28 31 32 0
h 1 2 3 4 5 6 7 8 9 10 11 12 13 14 15 16 17 18 19 20 21 22 23 24 25 26 27 28 29 30 31 32 0
h 1 2 7 8 11 12 13 14 15 16 17 18 19 20 21 22 25 26 31 32 0
h 1 2 3 4 5 6 7 8 9 10 11 12 13 14 15 16 17 18 19 20 21 22 23 24 25 26 27 28 29 30 31 32 0
h 1 2 3 4 5 6 7 8 9 10 11 12 13 14 15 16 17 18 19 20 21 22 23 24 25 26 27 28 29 30 31 32 0
h 2 4 5 7 9 11 13 14 15 16 17 18 19 20 22 24 26 28 29 31 0
h 1 2 3 4 5 6 7 8 9 10 11 12 13 14 15 16 17 18 19 20 21 22 23 24 25 26 27 28 29 30 31 32 0
h 2 3 6 7 9 11 12 13 15 16 17 18 20 21 22 24 26 27 30 31 0
h 9 10 11 12 13 14 15 16 17 18 19 20 21 22 23 24 0
h 1 2 3 4 5 6 7 8 9 10 11 12 13 14 15 16 17 18 19 20 21 22 23 24 25 26 27 28 29 30 31 32 0
h 1 2 3 4 5 6 7 8 9 10 11 12 13 14 15 16 17 18 19 20 21 22 23 24 25 26 27 28 29 30 31 32 0
h 2 3 5 7 8 10 11 13 15 16 17 18 20 22 23 25 26 28 30 31 0
h 5 6 7 8 13 14 15 16 17 18 19 20 25 26 27 28 0
h 1 2 3 4 5 6 7 8 9 10 11 12 13 14 15 16 17 18 19 20 21 22 23 24 25 26 27 28 29 30 31 32 0
h 3 4 7 8 11 12 15 16 17 18 21 22 25 26 29 30 0
h 1 2 3 4 5 6 7 8 9 10 11 12 13 14 15 16 17 18 19 20 21 22 23 24 25 26 27 28 29 30 31 32 0
h 1 2 3 4 5 6 7 8 9 10 11 12 13 14 15 16 17 18 19 20 21 22 23 24 25 26 27 28 29 30 31 32 0
h 1 3 5 7 9 11 13 15 18 20 22 24 26 28 30 32 0
h 1 2 3 4 5 6 7 8 9 10 11 12 13 14 15 16 17 18 19 20 21 22 23 24 25 26 27 28 29 30 31 32 0
h 1 2 7 8 11 12 13 14 15 16 17 18 19 20 21 22 25 26 31 32 0
h 1 3 6 8 10 12 13 14 15 16 17 18 19 20 21 23 25 27 30 32 0
h 1 2 3 4 5 6 7 8 9 10 11 12 13 14 15 16 17 18 19 20 21 22 23 24 25 26 27 28 29 30 31 32 0
h 1 4 5 8 10 11 12 14 15 16 17 18 19 21 22 23 25 28 29 32 0
h 1 2 3 4 5 6 7 8 9 10 11 12 13 14 15 16 17 18 19 20 21 22 23 24 25 26 27 28 29 30 31 32 0
h 1 2 3 4 5 6 7 8 9 10 11 12 13 14 15 16 17 18 19 20 21 22 23 24 25 26 27 28 29 30 31 32 0
h 9 10 11 12 13 14 15 16 17 18 19 20 21 22 23 24 0
h 1 4 6 7 8 9 12 14 15 16 17 18 19 21 24 25 26 27 29 32 0
h 1 2 3 4 5 6 7 8 9 10 11 12 13 14 15 16 17 18 19 20 21 22 23 24 25 26 27 28 29 30 31 32 0
h 1 2 3 4 5 6 7 8 9 10 11 12 13 14 15 16 17 18 19 20 21 22 23 24 25 26 27 28 29 30 31 32 0
h 5 6 7 8 13 14 15 16 17 18 19 20 25 26 27 28 0
h 1 2 3 4 5 6 7 8 9 10 11 12 13 14 15 16 17 18 19 20 21 22 23 24 25 26 27 28 29 30 31 32 0
h 3 4 7 8 11 12 15 16 17 18 21 22 25 26 29 30 0
h 2 4 6 8 10 12 14 16 17 19 21 23 25 27 29 31 0
h 1 2 3 4 5 6 7 8 9 10 11 12 13 14 15 16 17 18 19 20 21 22 23 24 25 26 27 28 29 30 31 32 0
h 1 2 3 4 5 6 7 8 9 10 11 12 13 14 15 16 17 18 19 20 21 22 23 24 25 26 27 28 29 30 31 32 0
h 1 2 3 4 5 6 7 8 9 10 11 12 13 14 15 16 17 18 19 20 21 22 23 24 25 26 27 28 29 30 31 32 0
h 1 4 5 8 9 12 13 16 17 20 21 24 25 28 29 32 0
h 1 2 3 4 5 6 7 8 9 10 11 12 13 14 15 16 17 18 19 20 21 22 23 24 25 26 27 28 29 30 31 32 0
h 1 3 6 8 9 11 14 16 17 19 22 24 25 27 30 32 0
h 1 2 7 8 9 10 15 16 17 18 23 24 25 26 31 32 0
h 1 2 3 4 5 6 7 8 9 10 11 12 13 14 15 16 17 18 19 20 21 22 23 24 25 26 27 28 29 30 31 32 0
h 1 2 3 4 5 6 7 8 9 10 11 12 13 14 15 16 17 18 19 20 21 22 23 24 25 26 27 28 29 30 31 32 0
h 1 3 5 7 10 12 14 16 17 19 21 23 26 28 30 32 0
h 1 2 5 6 11 12 15 16 17 18 21 22 27 28 31 32 0
h 1 2 3 4 5 6 7 8 9 10 11 12 13 14 15 16 17 18 19 20 21 22 23 24 25 26 27 28 29 30 31 32 0
h 1 2 3 4 13 14 15 16 17 18 19 20 29 30 31 32 0
h 1 2 3 4 5 6 7 8 9 10 11 12 13 14 15 16 17 18 19 20 21 22 23 24 25 26 27 28 29 30 31 32 0
h 1 2 3 4 5 6 7 8 9 10 11 12 13 14 15 16 17 18 19 20 21 22 23 24 25 26 27 28 29 30 31 32 0
h 1 2 3 5 8 9 12 14 15 16 17 18 19 21 24 25 28 30 31 32 0
h 2 3 6 7 10 11 14 15 18 19 22 23 26 27 30 31 0
h 1 2 3 4 5 6 7 8 9 10 11 12 13 14 15 16 17 18 19 20 21 22 23 24 25 26 27 28 29 30 31 32 0
h 2 4 5 7 10 12 13 15 18 20 21 23 26 28 29 31 0
h 1 2 3 4 5 6 7 8 9 10 11 12 13 14 15 16 17 18 19 20 21 22 23 24 25 26 27 28 29 30 31 32 0
h 1 2 3 4 5 6 7 8 9 10 11 12 13 14 15 16 17 18 19 20 21 22 23 24 25 26 27 28 29 30 31 32 0
h 1 2 7 8 9 10 15 16 17 18 23 24 25 26 31 32 0
h 2 4 6 8 9 11 13 15 18 20 22 24 25 27 29 31 0
h 1 2 3 4 5 6 7 8 9 10 11 12 13 14 15 16 17 18 19 20 21 22 23 24 25 26 27 28 29 30 31 32 0
h 1 2 3 4 5 6 7 8 9 10 11 12 13 14 15 16 17 18 19 20 21 22 23 24 25 26 27 28 29 30 31 32 0
h 1 2 5 6 11 12 15 16 17 18 21 22 27 28 31 32 0
h 1 2 3 4 5 6 7 8 9 10 11 12 13 14 15 16 17 18 19 20 21 22 23 24 25 26 27 28 29 30 31 32 0
h 1 2 3 4 13 14 15 16 17 18 19 20 29 30 31 32 0
h 1 2 4 6 7 10 11 13 15 16 17 18 20 22 23 26 27 29 31 32 0
h 1 2 3 4 5 6 7 8 9 10 11 12 13 14 15 16 17 18 19 20 21 22 23 24 25 26 27 28 29 30 31 32 0
h 1 2 3 4 5 6 7 8 9 10 11 12 13 14 15 16 17 18 19 20 21 22 23 24 25 26 27 28 29 30 31 32 0
h 3 4 5 6 11 12 13 14 19 20 21 22 27 28 29 30 0
h 1 2 3 4 5 6 7 8 9 10 11 12 13 14 15 16 17 18 19 20 21 22 23 24 25 26 27 28 29 30 31 32 0
h 1 2 3 4 5 6 7 8 9 10 11 12 13 14 15 16 17 18 19 20 21 22 23 24 25 26 27 28 29 30 31 32 0
h 1 3 6 8 9 11 14 16 17 19 22 24 25 27 30 32 0
h 3 4 7 8 9 10 13 14 19 20 23 24 25 26 29 30 0
h 1 2 3 4 5 6 7 8 9 10 11 12 13 14 15 16 17 18 19 20 21 22 23 24 25 26 27 28 29 30 31 32 0
h 1 2 3 4 5 6 7 8 9 10 11 12 13 14 15 16 17 18 19 20 21 22 23 24 25 26 27 28 29 30 31 32 0
h 1 3 5 7 10 12 14 16 17 19 21 23 26 28 30 32 0
h 1 2 3 4 5 6 7 8 9 10 11 12 13 14 15 16 17 18 19 20 21 22 23 24 25 26 27 28 29 30 31 32 0
h 1 3 4 6 7 10 11 13 14 16 17 19 20 22 23 26 27 29 30 32 0
h 1 2 3 4 13 14 15 16 17 18 19 20 29 30 31 32 0
h 1 2 3 4 5 6 7 8 9 10 11 12 13 14 15 16 17 18 19 20 21 22 23 24 25 26 27 28 29 30 31 32 0
h 1 2 3 4 5 6 7 8 9 10 11 12 13 14 15 16 17 18 19 20 21 22 23 24 25 26 27 28 29 30 31 32 0
h 3 4 5 6 11 12 13 14 19 20 21 22 27 28 29 30 0
h 2 4 5 7 10 12 13 15 18 20 21 23 26 28 29 31 0
h 1 2 3 4 5 6 7 8 9 10 11 12 13 14 15 16 17 18 19 20 21 22 23 24 25 26 27 28 29 30 31 32 0
h 1 2 3 4 5 6 7 8 9 10 11 12 13 14 15 16 17 18 19 20 21 22 23 24 25 26 27 28 29 30 31 32 0
h 3 4 7 8 9 10 13 14 19 20 23 24 25 26 29 30 0
h 2 4 6 8 9 11 13 15 18 20 22 24 25 27 29 31 0
h 1 2 3 4 5 6 7 8 9 10 11 12 13 14 15 16 17 18 19 20 21 22 23 24 25 26 27 28 29 30 31 32 0
h 2 3 4 5 8 9 12 13 14 15 18 19 20 21 24 25 28 29 30 31 0
h 1 2 3 4 5 6 7 8 9 10 11 12 13 14 15 16 17 18 19 20 21 22 23 24 25 26 27 28 29 30 31 32 0
h 1 2 3 4 5 6 7 8 9 10 11 12 13 14 15 16 17 18 19 20 21 22 23 24 25 26 27 28 29 30 31 32 0
h 1 2 3 4 13 14 15 16 17 18 19 20 29 30 31 32 0
h 1 2 3 4 5 6 7 8 9 10 11 12 13 14 15 16 17 18 19 20 21 22 23 24 25 26 27 28 29 30 31 32 0
h 1 2 3 4 5 6 7 8 9 10 11 12 13 14 15 16 17 18 19 20 21 22 23 24 25 26 27 28 29 30 31 32 0
h 1 4 5 8 9 12 13 16 17 20 21 24 25 28 29 32 0
h 5 6 7 8 9 10 11 12 21 22 23 24 25 26 27 28 0
h 1 2 3 4 5 6 7 8 9 10 11 12 13 14 15 16 17 18 19 20 21 22 23 24 25 26 27 28 29 30 31 32 0
h 1 2 3 4 5 6 7 8 9 10 11 12 13 14 15 16 17 18 19 20 21 22 23 24 25 26 27 28 29 30 31 32 0
h 1 4 5 6 7 10 11 12 13 16 17 20 21 22 23 26 27 28 29 32 0
h 1 2 3 4 5 6 7 8 9 10 11 12 13 14 15 16 17 18 19 20 21 22 23 24 25 26 27 28 29 30 31 32 0
h 1 3 5 7 10 12 14 16 17 19 21 23 26 28 30 32 0
h 1 2 5 6 11 12 15 16 17 18 21 22 27 28 31 32 0
h 1 2 3 4 5 6 7 8 9 10 11 12 13 14 15 16 17 18 19 20 21 22 23 24 25 26 27 28 29 30 31 32 0
h 2 3 6 7 10 11 14 15 18 19 22 23 26 27 30 31 0
h 1 2 3 4 5 6 7 8 9 10 11 12 13 14 15 16 17 18 19 20 21 22 23 24 25 26 27 28 29 30 31 32 0
h 1 2 3 4 5 6 7 8 9 10 11 12 13 14 15 16 17 18 19 20 21 22 23 24 25 26 27 28 29 30 31 32 0
h 5 6 7 8 9 10 11 12 21 22 23 24 25 26 27 28 0
h 2 3 5 6 8 9 11 12 14 15 18 19 21 22 24 25 27 28 30 31 0
h 1 2 3 4 5 6 7 8 9 10 11 12 13 14 15 16 17 18 19 20 21 22 23 24 25 26 27 28 29 30 31 32 0
h 2 4 6 8 9 11 13 15 18 20 22 24 25 27 29 31 0
h 1 2 3 4 5 6 7 8 9 10 11 12 13 14 15 16 17 18 19 20 21 22 23 24 25 26 27 28 29 30 31 32 0
h 1 2 3 4 5 6 7 8 9 10 11 12 13 14 15 16 17 18 19 20 21 22 23 24 25 26 27 28 29 30 31 32 0
h 1 2 5 6 11 12 15 16 17 18 21 22 27 28 31 32 0
h 1 2 3 4 5 6 7 8 9 10 11 12 13 14 15 16 17 18 19 20 21 22 23 24 25 26 27 28 29 30 31 32 0
h 1 2 3 4 5 6 7 8 9 10 11 12 13 14 15 16 17 18 19 20 21 22 23 24 25 26 27 28 29 30 31 32 0
h 2 3 5 7 8 9 10 12 14 15 18 19 21 23 24 25 26 28 30 31 0
h 5 6 7 8 9 10 11 12 21 22 23 24 25 26 27 28 0
h 1 2 3 4 5 6 7 8 9 10 11 12 13 14 15 16 17 18 19 20 21 22 23 24 25 26 27 28 29 30 31 32 0
h 3 4 7 8 9 10 13 14 19 20 23 24 25 26 29 30 0
h 1 2 3 4 5 6 7 8 9 10 11 12 13 14 15 16 17 18 19 20 21 22 23 24 25 26 27 28 29 30 31 32 0
h 1 2 3 4 5 6 7 8 9 10 11 12 13 14 15 16 17 18 19 20 21 22 23 24 25 26 27 28 29 30 31 32 0
h 1 3 5 7 10 12 14 16 17 19 21 23 26 28 30 32 0
h 1 4 6 7 8 9 10 11 13 16 17 20 22 23 24 25 26 27 29 32 0
h 1 2 3 4 5 6 7 8 9 10 11 12 13 14 15 16 17 18 19 20 21 22 23 24 25 26 27 28 29 30 31 32 0
h 1 2 3 4 5 6 7 8 9 10 11 12 13 14 15 16 17 18 19 20 21 22 23 24 25 26 27 28 29 30 31 32 0
h 5 6 7 8 9 10 11 12 21 22 23 24 25 26 27 28 0
h 1 2 3 4 5 6 7 8 9 10 11 12 13 14 15 16 17 18 19 20 21 22 23 24 25 26 27 28 29 30 31 32 0
h 3 4 7 8 9 10 13 14 19 20 23 24 25 26 29 30 0
h 2 4 6 8 9 11 13 15 18 20 22 24 25 27 29 31 0
h 1 2 3 4 5 6 7 8 9 10 11 12 13 14 15 16 17 18 19 20 21 22 23 24 25 26 27 28 29 30 31 32 0
h 1 2 3 4 5 6 7 8 9 10 11 12 13 14 15 16 17 18 19 20 21 22 23 24 25 26 27 28 29 30 31 32 0
h 1 2 3 4 5 6 7 8 9 10 11 12 13 14 15 16 17 18 19 20 21 22 23 24 25 26 27 28 29 30 31 32 0
h 1 4 5 8 9 12 13 16 17 20 21 24 25 28 29 32 0
h 1 2 3 4 5 6 7 8 9 10 11 12 13 14 15 16 17 18 19 20 21 22 23 24 25 26 27 28 29 30 31 32 0
h 1 3 6 8 9 11 14 16 17 19 22 24 25 27 30 32 0
h 1 2 7 8 9 10 15 16 17 18 23 24 25 26 31 32 0
h 1 2 3 4 5 6 7 8 9 10 11 12 13 14 15 16 17 18 19 20 21 22 23 24 25 26 27 28 29 30 31 32 0
h 2 3 6 7 10 11 14 15 18 19 22 23 26 27 30 31 0
h 1 2 3 4 5 6 7 8 9 10 11 12 13 14 15 16 17 18 19 20 21 22 23 24 25 26 27 28 29 30 31 32 0
h 2 4 5 7 10 12 13 15 18 20 21 23 26 28 29 31 0
h 1 2 3 4 5 6 7 8 9 10 11 12 13 14 15 16 17 18 19 20 21 22 23 24 25 26 27 28 29 30 31 32 0
h 1 2 3 4 5 6 7 8 9 10 11 12 13 14 15 16 17 18 19 20 21 22 23 24 25 26 27 28 29 30 31 32 0
h 1 2 7 8 9 10 15 16 17 18 23 24 25 26 31 32 0
h 1 2 3 4 5 6 7 8 9 10 11 12 13 14 15 16 17 18 19 20 21 22 23 24 25 26 27 28 29 30 31 32 0
h 3 4 5 6 11 12 13 14 19 20 21 22 27 28 29 30 0
h 1 2 3 4 5 6 7 8 9 10 11 12 13 14 15 16 17 18 19 20 21 22 23 24 25 26 27 28 29 30 31 32 0
h 1 2 3 4 5 6 7 8 9 10 11 12 13 14 15 16 17 18 19 20 21 22 23 24 25 26 27 28 29 30 31 32 0
h 1 3 6 8 9 11 14 16 17 19 22 24 25 27 30 32 0
h 1 2 3 4 5 6 7 8 9 10 11 12 13 14 15 16 17 18 19 20 21 22 23 24 25 26 27 28 29 30 31 32 0
h 3 4 5 6 11 12 13 14 19 20 21 22 27 28 29 30 0
h 2 4 5 7 10 12 13 15 18 20 21 23 26 28 29 31 0
h 1 2 3 4 5 6 7 8 9 10 11 12 13 14 15 16 17 18 19 20 21 22 23 24 25 26 27 28 29 30 31 32 0
h 1 2 3 4 5 6 7 8 9 10 11 12 13 14 15 16 17 18 19 20 21 22 23 24 25 26 27 28 29 30 31 32 0
h 1 2 3 4 5 6 7 8 9 10 11 12 13 14 15 16 17 18 19 20 21 22 23 24 25 26 27 28 29 30 31 32 0
h 1 4 5 8 9 12 13 16 17 20 21 24 25 28 29 32 0
h 2 3 6 7 10 11 14 15 18 19 22 23 26 27 30 31 0
h 1 2 3 4 5 6 7 8 9 10 11 12 13 14 15 16 17 18 19 20 21 22 23 24 25 26 27 28 29 30 31 32 0
h 1 2 3 4 5 6 7 8 9 10 11 12 13 14 15 16 17 18 19 20 21 22 23 24 25 26 27 28 29 30 31 32 0
1 -1 0
1 -2 0
1 -3 0
1 -4 0
1 -5 0
1 -6 0
1 -7 0
1 -8 0
1 -9 0
1 -10 0
1 -11 0
1 -12 0
1 -13 0
1 -14 0
1 -15 0
1 -16 0
1 -17 0
1 -18 0
1 -19 0
1 -20 0
1 -21 0
1 -22 0
1 -23 0
1 -24 0
1 -25 0
1 -26 0
1 -27 0
1 -28 0
1 -29 0
1 -30 0
1 -31 0
1 -32 0
